p cnf 86 1505
-86 -43 -6 -3 0
-85 -42 -5 -2 0
-84 -41 -4 -1 0
-83 -43 -40 -3 0
-82 -42 -39 -2 0
-81 -41 -38 -1 0
-80 -43 -40 -37 0
-79 -42 -39 -36 0
-78 -41 -38 -35 0
-77 -40 -37 -34 0
-76 -39 -36 -33 0
-75 -38 -35 -32 0
-74 -37 -34 -31 0
-73 -36 -33 -30 0
-72 -35 -32 -29 0
-71 -34 -31 -28 0
-70 -33 -30 -27 0
-69 -32 -29 -26 0
-68 -31 -28 -25 0
-67 -30 -27 -24 0
-66 -29 -26 -23 0
-65 -28 -25 -22 0
-64 -27 -24 -21 0
-63 -26 -23 -20 0
-62 -25 -22 -19 0
-61 -24 -21 -18 0
-60 -23 -20 -17 0
-59 -22 -19 -16 0
-58 -21 -18 -15 0
-57 -20 -17 -14 0
-56 -19 -16 -13 0
-55 -18 -15 -12 0
-54 -17 -14 -11 0
-53 -16 -13 -10 0
-52 -15 -12 -9 0
-51 -14 -11 -8 0
-50 -13 -10 -7 0
-49 -12 -9 -6 0
-48 -11 -8 -5 0
-47 -10 -7 -4 0
-46 -9 -6 -3 0
-45 -8 -5 -2 0
-44 -7 -4 -1 0
1 7 13 19 44 50 56 0
1 7 13 38 44 50 81 0
1 7 13 44 50 0
1 7 13 44 50 62 0
1 7 13 44 50 75 0
1 7 20 44 0
1 7 25 44 56 0
1 7 26 44 75 0
1 7 31 44 0
1 7 32 38 44 75 81 0
1 7 38 44 56 81 0
1 7 38 44 69 81 0
1 7 38 44 81 0
1 7 44 0
1 7 44 56 0
1 7 44 56 68 0
1 7 44 56 75 0
1 7 44 63 75 0
1 7 44 75 0
1 14 0
1 14 20 57 0
1 14 38 81 0
1 14 63 75 0
1 19 25 50 62 0
1 19 38 50 81 0
1 19 50 0
1 19 50 68 0
1 19 50 75 0
1 20 0
1 20 26 63 75 0
1 20 38 69 81 0
1 25 0
1 25 31 68 0
1 25 38 81 0
1 26 32 38 69 75 81 0
1 26 50 75 0
1 26 57 75 0
1 26 75 0
1 31 0
1 31 50 62 0
1 32 38 50 75 81 0
1 32 38 63 75 81 0
1 32 38 75 81 0
1 38 50 62 81 0
1 38 50 69 81 0
1 38 50 81 0
1 38 57 69 81 0
1 38 69 81 0
1 38 81 0
1 50 0
1 50 57 0
1 50 62 0
1 50 75 0
1 57 0
1 63 75 0
1 68 0
1 68 75 0
1 75 0
2 8 14 20 45 51 57 0
2 8 14 39 45 51 82 0
2 8 14 45 51 0
2 8 14 45 51 63 0
2 8 14 45 51 76 0
2 8 21 45 0
2 8 26 45 57 0
2 8 27 45 76 0
2 8 32 45 0
2 8 33 39 45 76 82 0
2 8 39 45 57 82 0
2 8 39 45 70 82 0
2 8 39 45 82 0
2 8 45 0
2 8 45 57 0
2 8 45 57 69 0
2 8 45 57 76 0
2 8 45 64 76 0
2 8 45 76 0
2 15 0
2 15 21 58 0
2 15 39 82 0
2 15 64 76 0
2 20 26 51 63 0
2 20 39 51 82 0
2 20 51 0
2 20 51 69 0
2 20 51 76 0
2 21 0
2 21 27 64 76 0
2 21 39 70 82 0
2 26 0
2 26 32 69 0
2 26 39 82 0
2 27 33 39 70 76 82 0
2 27 51 76 0
2 27 58 76 0
2 27 76 0
2 32 0
2 32 51 63 0
2 33 39 51 76 82 0
2 33 39 64 76 82 0
2 33 39 76 82 0
2 39 51 63 82 0
2 39 51 70 82 0
2 39 51 82 0
2 39 58 70 82 0
2 39 70 82 0
2 39 82 0
2 51 0
2 51 58 0
2 51 63 0
2 51 76 0
2 58 0
2 64 76 0
2 69 0
2 69 76 0
2 76 0
3 9 15 21 46 52 58 0
3 9 15 40 46 52 83 0
3 9 15 46 52 0
3 9 15 46 52 64 0
3 9 15 46 52 77 0
3 9 22 46 0
3 9 27 46 58 0
3 9 28 46 77 0
3 9 33 46 0
3 9 34 40 46 77 83 0
3 9 40 46 58 83 0
3 9 40 46 71 83 0
3 9 40 46 83 0
3 9 46 0
3 9 46 58 0
3 9 46 58 70 0
3 9 46 58 77 0
3 9 46 65 77 0
3 9 46 77 0
3 16 0
3 16 22 59 0
3 16 40 83 0
3 16 65 77 0
3 21 27 52 64 0
3 21 40 52 83 0
3 21 52 0
3 21 52 70 0
3 21 52 77 0
3 22 0
3 22 28 65 77 0
3 22 40 71 83 0
3 27 0
3 27 33 70 0
3 27 40 83 0
3 28 34 40 71 77 83 0
3 28 52 77 0
3 28 59 77 0
3 28 77 0
3 33 0
3 33 52 64 0
3 34 40 52 77 83 0
3 34 40 65 77 83 0
3 34 40 77 83 0
3 40 52 64 83 0
3 40 52 71 83 0
3 40 52 83 0
3 40 59 71 83 0
3 40 71 83 0
3 40 83 0
3 52 0
3 52 59 0
3 52 64 0
3 52 77 0
3 59 0
3 65 77 0
3 70 0
3 70 77 0
3 77 0
4 10 16 22 47 53 59 0
4 10 16 41 47 53 84 0
4 10 16 47 53 0
4 10 16 47 53 65 0
4 10 16 47 53 78 0
4 10 23 47 0
4 10 28 47 59 0
4 10 29 47 78 0
4 10 34 47 0
4 10 35 41 47 78 84 0
4 10 41 47 59 84 0
4 10 41 47 72 84 0
4 10 41 47 84 0
4 10 47 0
4 10 47 59 0
4 10 47 59 71 0
4 10 47 59 78 0
4 10 47 66 78 0
4 10 47 78 0
4 17 0
4 17 23 60 0
4 17 41 84 0
4 17 66 78 0
4 22 28 53 65 0
4 22 41 53 84 0
4 22 53 0
4 22 53 71 0
4 22 53 78 0
4 23 0
4 23 29 66 78 0
4 23 41 72 84 0
4 28 0
4 28 34 71 0
4 28 41 84 0
4 29 35 41 72 78 84 0
4 29 53 78 0
4 29 60 78 0
4 29 78 0
4 34 0
4 34 53 65 0
4 35 41 53 78 84 0
4 35 41 66 78 84 0
4 35 41 78 84 0
4 41 53 65 84 0
4 41 53 72 84 0
4 41 53 84 0
4 41 60 72 84 0
4 41 72 84 0
4 41 84 0
4 53 0
4 53 60 0
4 53 65 0
4 53 78 0
4 60 0
4 66 78 0
4 71 0
4 71 78 0
4 78 0
5 11 17 23 48 54 60 0
5 11 17 42 48 54 85 0
5 11 17 48 54 0
5 11 17 48 54 66 0
5 11 17 48 54 79 0
5 11 24 48 0
5 11 29 48 60 0
5 11 30 48 79 0
5 11 35 48 0
5 11 36 42 48 79 85 0
5 11 42 48 60 85 0
5 11 42 48 73 85 0
5 11 42 48 85 0
5 11 48 0
5 11 48 60 0
5 11 48 60 72 0
5 11 48 60 79 0
5 11 48 67 79 0
5 11 48 79 0
5 18 0
5 18 24 61 0
5 18 42 85 0
5 18 67 79 0
5 23 29 54 66 0
5 23 42 54 85 0
5 23 54 0
5 23 54 72 0
5 23 54 79 0
5 24 0
5 24 30 67 79 0
5 24 42 73 85 0
5 29 0
5 29 35 72 0
5 29 42 85 0
5 30 36 42 73 79 85 0
5 30 54 79 0
5 30 61 79 0
5 30 79 0
5 35 0
5 35 54 66 0
5 36 42 54 79 85 0
5 36 42 67 79 85 0
5 36 42 79 85 0
5 42 54 66 85 0
5 42 54 73 85 0
5 42 54 85 0
5 42 61 73 85 0
5 42 73 85 0
5 42 85 0
5 54 0
5 54 61 0
5 54 66 0
5 54 79 0
5 61 0
5 67 79 0
5 72 0
5 72 79 0
5 79 0
6 12 18 24 49 55 61 0
6 12 18 43 49 55 86 0
6 12 18 49 55 0
6 12 18 49 55 67 0
6 12 18 49 55 80 0
6 12 25 49 0
6 12 30 49 61 0
6 12 31 49 80 0
6 12 36 49 0
6 12 37 43 49 80 86 0
6 12 43 49 61 86 0
6 12 43 49 74 86 0
6 12 43 49 86 0
6 12 49 0
6 12 49 61 0
6 12 49 61 73 0
6 12 49 61 80 0
6 12 49 68 80 0
6 12 49 80 0
6 19 0
6 19 25 62 0
6 19 43 86 0
6 19 68 80 0
6 24 30 55 67 0
6 24 43 55 86 0
6 24 55 0
6 24 55 73 0
6 24 55 80 0
6 25 0
6 25 31 68 80 0
6 25 43 74 86 0
6 30 0
6 30 36 73 0
6 30 43 86 0
6 31 37 43 74 80 86 0
6 31 55 80 0
6 31 62 80 0
6 31 80 0
6 36 0
6 36 55 67 0
6 37 43 55 80 86 0
6 37 43 68 80 86 0
6 37 43 80 86 0
6 43 55 67 86 0
6 43 55 74 86 0
6 43 55 86 0
6 43 62 74 86 0
6 43 74 86 0
6 43 86 0
6 55 0
6 55 62 0
6 55 67 0
6 55 80 0
6 62 0
6 68 80 0
6 73 0
6 73 80 0
6 80 0
7 13 19 25 50 56 62 0
7 13 19 50 56 0
7 13 19 50 56 68 0
7 13 19 50 56 81 0
7 13 26 50 0
7 13 31 50 62 0
7 13 32 50 81 0
7 13 37 50 0
7 13 50 0
7 13 50 62 0
7 13 50 62 74 0
7 13 50 62 81 0
7 13 50 69 81 0
7 13 50 81 0
7 20 0
7 20 26 63 0
7 20 69 81 0
7 25 31 56 68 0
7 25 56 0
7 25 56 74 0
7 25 56 81 0
7 26 0
7 26 32 69 81 0
7 31 0
7 31 37 74 0
7 32 56 81 0
7 32 63 81 0
7 32 81 0
7 37 0
7 37 56 68 0
7 56 0
7 56 63 0
7 56 68 0
7 56 81 0
7 63 0
7 69 81 0
7 74 0
7 74 81 0
7 81 0
8 14 20 26 51 57 63 0
8 14 20 51 57 0
8 14 20 51 57 69 0
8 14 20 51 57 82 0
8 14 27 51 0
8 14 32 51 63 0
8 14 33 51 82 0
8 14 38 51 0
8 14 51 0
8 14 51 63 0
8 14 51 63 75 0
8 14 51 63 82 0
8 14 51 70 82 0
8 14 51 82 0
8 21 0
8 21 27 64 0
8 21 70 82 0
8 26 32 57 69 0
8 26 57 0
8 26 57 75 0
8 26 57 82 0
8 27 0
8 27 33 70 82 0
8 32 0
8 32 38 75 0
8 33 57 82 0
8 33 64 82 0
8 33 82 0
8 38 0
8 38 57 69 0
8 57 0
8 57 64 0
8 57 69 0
8 57 82 0
8 64 0
8 70 82 0
8 75 0
8 75 82 0
8 82 0
9 15 21 27 52 58 64 0
9 15 21 52 58 0
9 15 21 52 58 70 0
9 15 21 52 58 83 0
9 15 28 52 0
9 15 33 52 64 0
9 15 34 52 83 0
9 15 39 52 0
9 15 52 0
9 15 52 64 0
9 15 52 64 76 0
9 15 52 64 83 0
9 15 52 71 83 0
9 15 52 83 0
9 22 0
9 22 28 65 0
9 22 71 83 0
9 27 33 58 70 0
9 27 58 0
9 27 58 76 0
9 27 58 83 0
9 28 0
9 28 34 71 83 0
9 33 0
9 33 39 76 0
9 34 58 83 0
9 34 65 83 0
9 34 83 0
9 39 0
9 39 58 70 0
9 58 0
9 58 65 0
9 58 70 0
9 58 83 0
9 65 0
9 71 83 0
9 76 0
9 76 83 0
9 83 0
10 16 22 28 53 59 65 0
10 16 22 53 59 0
10 16 22 53 59 71 0
10 16 22 53 59 84 0
10 16 29 53 0
10 16 34 53 65 0
10 16 35 53 84 0
10 16 40 53 0
10 16 53 0
10 16 53 65 0
10 16 53 65 77 0
10 16 53 65 84 0
10 16 53 72 84 0
10 16 53 84 0
10 23 0
10 23 29 66 0
10 23 72 84 0
10 28 34 59 71 0
10 28 59 0
10 28 59 77 0
10 28 59 84 0
10 29 0
10 29 35 72 84 0
10 34 0
10 34 40 77 0
10 35 59 84 0
10 35 66 84 0
10 35 84 0
10 40 0
10 40 59 71 0
10 59 0
10 59 66 0
10 59 71 0
10 59 84 0
10 66 0
10 72 84 0
10 77 0
10 77 84 0
10 84 0
11 17 23 29 54 60 66 0
11 17 23 54 60 0
11 17 23 54 60 72 0
11 17 23 54 60 85 0
11 17 30 54 0
11 17 35 54 66 0
11 17 36 54 85 0
11 17 41 54 0
11 17 54 0
11 17 54 66 0
11 17 54 66 78 0
11 17 54 66 85 0
11 17 54 73 85 0
11 17 54 85 0
11 24 0
11 24 30 67 0
11 24 73 85 0
11 29 35 60 72 0
11 29 60 0
11 29 60 78 0
11 29 60 85 0
11 30 0
11 30 36 73 85 0
11 35 0
11 35 41 78 0
11 36 60 85 0
11 36 67 85 0
11 36 85 0
11 41 0
11 41 60 72 0
11 60 0
11 60 67 0
11 60 72 0
11 60 85 0
11 67 0
11 73 85 0
11 78 0
11 78 85 0
11 85 0
12 18 24 30 55 61 67 0
12 18 24 55 61 0
12 18 24 55 61 73 0
12 18 24 55 61 86 0
12 18 31 55 0
12 18 36 55 67 0
12 18 37 55 86 0
12 18 42 55 0
12 18 55 0
12 18 55 67 0
12 18 55 67 79 0
12 18 55 67 86 0
12 18 55 74 86 0
12 18 55 86 0
12 25 0
12 25 31 68 0
12 25 74 86 0
12 30 36 61 73 0
12 30 61 0
12 30 61 79 0
12 30 61 86 0
12 31 0
12 31 37 74 86 0
12 36 0
12 36 42 79 0
12 37 61 86 0
12 37 68 86 0
12 37 86 0
12 42 0
12 42 61 73 0
12 61 0
12 61 68 0
12 61 73 0
12 61 86 0
12 68 0
12 74 86 0
12 79 0
12 79 86 0
12 86 0
13 19 25 31 56 62 68 0
13 19 25 44 56 62 0
13 19 25 56 62 0
13 19 25 56 62 74 0
13 19 32 56 0
13 19 37 56 68 0
13 19 38 44 56 0
13 19 43 56 0
13 19 44 56 0
13 19 44 56 68 0
13 19 44 56 75 0
13 19 56 0
13 19 56 68 0
13 19 56 68 80 0
13 26 0
13 26 32 69 0
13 26 44 75 0
13 31 37 62 74 0
13 31 44 62 0
13 31 62 0
13 31 62 80 0
13 32 0
13 32 38 44 75 0
13 37 0
13 37 43 80 0
13 38 44 0
13 38 44 62 0
13 38 44 69 0
13 43 0
13 43 62 74 0
13 44 0
13 44 62 0
13 44 75 0
13 44 80 0
13 62 0
13 62 69 0
13 62 74 0
13 69 0
13 80 0
14 20 26 32 57 63 69 0
14 20 26 45 57 63 0
14 20 26 57 63 0
14 20 26 57 63 75 0
14 20 33 57 0
14 20 38 57 69 0
14 20 39 45 57 0
14 20 45 57 0
14 20 45 57 69 0
14 20 45 57 76 0
14 20 57 0
14 20 57 69 0
14 20 57 69 81 0
14 27 0
14 27 33 70 0
14 27 45 76 0
14 32 38 63 75 0
14 32 45 63 0
14 32 63 0
14 32 63 81 0
14 33 0
14 33 39 45 76 0
14 38 0
14 39 45 0
14 39 45 63 0
14 39 45 70 0
14 45 0
14 45 63 0
14 45 76 0
14 45 81 0
14 63 0
14 63 70 0
14 63 75 0
14 70 0
14 81 0
15 21 27 33 58 64 70 0
15 21 27 46 58 64 0
15 21 27 58 64 0
15 21 27 58 64 76 0
15 21 34 58 0
15 21 39 58 70 0
15 21 40 46 58 0
15 21 46 58 0
15 21 46 58 70 0
15 21 46 58 77 0
15 21 58 0
15 21 58 70 0
15 21 58 70 82 0
15 28 0
15 28 34 71 0
15 28 46 77 0
15 33 39 64 76 0
15 33 46 64 0
15 33 64 0
15 33 64 82 0
15 34 0
15 34 40 46 77 0
15 39 0
15 40 46 0
15 40 46 64 0
15 40 46 71 0
15 46 0
15 46 64 0
15 46 77 0
15 46 82 0
15 64 0
15 64 71 0
15 64 76 0
15 71 0
15 82 0
16 22 28 34 59 65 71 0
16 22 28 47 59 65 0
16 22 28 59 65 0
16 22 28 59 65 77 0
16 22 35 59 0
16 22 40 59 71 0
16 22 41 47 59 0
16 22 47 59 0
16 22 47 59 71 0
16 22 47 59 78 0
16 22 59 0
16 22 59 71 0
16 22 59 71 83 0
16 29 0
16 29 35 72 0
16 29 47 78 0
16 34 40 65 77 0
16 34 47 65 0
16 34 65 0
16 34 65 83 0
16 35 0
16 35 41 47 78 0
16 40 0
16 41 47 0
16 41 47 65 0
16 41 47 72 0
16 47 0
16 47 65 0
16 47 78 0
16 47 83 0
16 65 0
16 65 72 0
16 65 77 0
16 72 0
16 83 0
17 23 29 35 60 66 72 0
17 23 29 48 60 66 0
17 23 29 60 66 0
17 23 29 60 66 78 0
17 23 36 60 0
17 23 41 60 72 0
17 23 42 48 60 0
17 23 48 60 0
17 23 48 60 72 0
17 23 48 60 79 0
17 23 60 0
17 23 60 72 0
17 23 60 72 84 0
17 30 0
17 30 36 73 0
17 30 48 79 0
17 35 41 66 78 0
17 35 48 66 0
17 35 66 0
17 35 66 84 0
17 36 0
17 36 42 48 79 0
17 41 0
17 42 48 0
17 42 48 66 0
17 42 48 73 0
17 48 0
17 48 66 0
17 48 79 0
17 48 84 0
17 66 0
17 66 73 0
17 66 78 0
17 73 0
17 84 0
18 24 30 36 61 67 73 0
18 24 30 49 61 67 0
18 24 30 61 67 0
18 24 30 61 67 79 0
18 24 37 61 0
18 24 42 61 73 0
18 24 43 49 61 0
18 24 49 61 0
18 24 49 61 73 0
18 24 49 61 80 0
18 24 61 0
18 24 61 73 0
18 24 61 73 85 0
18 31 0
18 31 37 74 0
18 31 49 80 0
18 36 42 67 79 0
18 36 49 67 0
18 36 67 0
18 36 67 85 0
18 37 0
18 37 43 49 80 0
18 42 0
18 43 49 0
18 43 49 67 0
18 43 49 74 0
18 49 0
18 49 67 0
18 49 80 0
18 49 85 0
18 67 0
18 67 74 0
18 67 79 0
18 74 0
18 85 0
19 25 31 37 62 68 74 0
19 25 31 50 62 68 0
19 25 31 62 68 0
19 25 31 62 68 80 0
19 25 38 62 0
19 25 43 62 74 0
19 25 50 62 0
19 25 50 62 74 0
19 25 50 62 81 0
19 25 62 0
19 25 62 74 0
19 25 62 74 86 0
19 32 0
19 32 38 75 0
19 32 50 81 0
19 37 43 68 80 0
19 37 50 68 0
19 37 68 0
19 37 68 86 0
19 38 0
19 43 0
19 50 0
19 50 68 0
19 50 81 0
19 50 86 0
19 68 0
19 68 75 0
19 68 80 0
19 75 0
19 86 0
20 26 32 38 63 69 75 0
20 26 32 51 63 69 0
20 26 32 63 69 0
20 26 32 63 69 81 0
20 26 39 63 0
20 26 44 63 75 0
20 26 51 63 0
20 26 51 63 75 0
20 26 51 63 82 0
20 26 63 0
20 26 63 75 0
20 33 0
20 33 39 76 0
20 33 51 82 0
20 38 44 69 0
20 38 51 69 0
20 38 69 0
20 39 0
20 44 0
20 44 51 0
20 51 0
20 51 69 0
20 51 82 0
20 69 0
20 69 76 0
20 69 81 0
20 76 0
21 27 33 39 64 70 76 0
21 27 33 52 64 70 0
21 27 33 64 70 0
21 27 33 64 70 82 0
21 27 40 64 0
21 27 45 64 76 0
21 27 52 64 0
21 27 52 64 76 0
21 27 52 64 83 0
21 27 64 0
21 27 64 76 0
21 34 0
21 34 40 77 0
21 34 52 83 0
21 39 45 70 0
21 39 52 70 0
21 39 70 0
21 40 0
21 45 0
21 45 52 0
21 52 0
21 52 70 0
21 52 83 0
21 70 0
21 70 77 0
21 70 82 0
21 77 0
22 28 34 40 65 71 77 0
22 28 34 53 65 71 0
22 28 34 65 71 0
22 28 34 65 71 83 0
22 28 41 65 0
22 28 46 65 77 0
22 28 53 65 0
22 28 53 65 77 0
22 28 53 65 84 0
22 28 65 0
22 28 65 77 0
22 35 0
22 35 41 78 0
22 35 53 84 0
22 40 46 71 0
22 40 53 71 0
22 40 71 0
22 41 0
22 46 0
22 46 53 0
22 53 0
22 53 71 0
22 53 84 0
22 71 0
22 71 78 0
22 71 83 0
22 78 0
23 29 35 41 66 72 78 0
23 29 35 54 66 72 0
23 29 35 66 72 0
23 29 35 66 72 84 0
23 29 42 66 0
23 29 47 66 78 0
23 29 54 66 0
23 29 54 66 78 0
23 29 54 66 85 0
23 29 66 0
23 29 66 78 0
23 36 0
23 36 42 79 0
23 36 54 85 0
23 41 47 72 0
23 41 54 72 0
23 41 72 0
23 42 0
23 47 0
23 47 54 0
23 54 0
23 54 72 0
23 54 85 0
23 72 0
23 72 79 0
23 72 84 0
23 79 0
24 30 36 42 67 73 79 0
24 30 36 55 67 73 0
24 30 36 67 73 0
24 30 36 67 73 85 0
24 30 43 67 0
24 30 48 67 79 0
24 30 55 67 0
24 30 55 67 79 0
24 30 55 67 86 0
24 30 67 0
24 30 67 79 0
24 37 0
24 37 43 80 0
24 37 55 86 0
24 42 48 73 0
24 42 55 73 0
24 42 73 0
24 43 0
24 48 0
24 48 55 0
24 55 0
24 55 73 0
24 55 86 0
24 73 0
24 73 80 0
24 73 85 0
24 80 0
25 31 37 43 68 74 80 0
25 31 37 56 68 74 0
25 31 37 68 74 0
25 31 37 68 74 86 0
25 31 44 56 68 0
25 31 49 68 80 0
25 31 56 68 0
25 31 56 68 80 0
25 31 68 0
25 31 68 80 0
25 38 0
25 38 44 56 0
25 43 49 74 0
25 43 56 74 0
25 43 74 0
25 44 56 0
25 49 0
25 49 56 0
25 56 0
25 56 74 0
25 74 0
25 74 81 0
25 74 86 0
25 81 0
26 32 38 44 69 75 0
26 32 38 57 69 75 0
26 32 38 69 75 0
26 32 45 57 69 0
26 32 50 69 81 0
26 32 57 69 0
26 32 57 69 81 0
26 32 69 0
26 32 69 81 0
26 39 0
26 39 45 57 0
26 44 75 0
26 45 57 0
26 50 0
26 50 57 0
26 57 0
26 57 75 0
26 75 0
26 75 82 0
26 82 0
27 33 39 45 70 76 0
27 33 39 58 70 76 0
27 33 39 70 76 0
27 33 46 58 70 0
27 33 51 70 82 0
27 33 58 70 0
27 33 58 70 82 0
27 33 70 0
27 33 70 82 0
27 40 0
27 40 46 58 0
27 45 76 0
27 46 58 0
27 51 0
27 51 58 0
27 58 0
27 58 76 0
27 76 0
27 76 83 0
27 83 0
28 34 40 46 71 77 0
28 34 40 59 71 77 0
28 34 40 71 77 0
28 34 47 59 71 0
28 34 52 71 83 0
28 34 59 71 0
28 34 59 71 83 0
28 34 71 0
28 34 71 83 0
28 41 0
28 41 47 59 0
28 46 77 0
28 47 59 0
28 52 0
28 52 59 0
28 59 0
28 59 77 0
28 77 0
28 77 84 0
28 84 0
29 35 41 47 72 78 0
29 35 41 60 72 78 0
29 35 41 72 78 0
29 35 48 60 72 0
29 35 53 72 84 0
29 35 60 72 0
29 35 60 72 84 0
29 35 72 0
29 35 72 84 0
29 42 0
29 42 48 60 0
29 47 78 0
29 48 60 0
29 53 0
29 53 60 0
29 60 0
29 60 78 0
29 78 0
29 78 85 0
29 85 0
30 36 42 48 73 79 0
30 36 42 61 73 79 0
30 36 42 73 79 0
30 36 49 61 73 0
30 36 54 73 85 0
30 36 61 73 0
30 36 61 73 85 0
30 36 73 0
30 36 73 85 0
30 43 0
30 43 49 61 0
30 48 79 0
30 49 61 0
30 54 0
30 54 61 0
30 61 0
30 61 79 0
30 79 0
30 79 86 0
30 86 0
31 37 43 49 74 80 0
31 37 43 62 74 80 0
31 37 43 74 80 0
31 37 50 62 74 0
31 37 55 74 86 0
31 37 62 74 0
31 37 62 74 86 0
31 37 74 0
31 37 74 86 0
31 44 0
31 44 80 0
31 49 80 0
31 50 62 0
31 55 0
31 55 62 0
31 62 0
31 62 80 0
31 80 0
32 38 44 56 75 0
32 38 44 63 75 0
32 38 44 75 0
32 38 51 63 75 0
32 38 63 75 0
32 38 75 0
32 45 0
32 45 81 0
32 50 81 0
32 51 63 0
32 56 0
32 56 63 0
32 63 0
32 63 81 0
32 81 0
33 39 45 57 76 0
33 39 45 64 76 0
33 39 45 76 0
33 39 52 64 76 0
33 39 64 76 0
33 39 76 0
33 46 0
33 46 82 0
33 51 82 0
33 52 64 0
33 57 0
33 57 64 0
33 64 0
33 64 82 0
33 82 0
34 40 46 58 77 0
34 40 46 65 77 0
34 40 46 77 0
34 40 53 65 77 0
34 40 65 77 0
34 40 77 0
34 47 0
34 47 83 0
34 52 83 0
34 53 65 0
34 58 0
34 58 65 0
34 65 0
34 65 83 0
34 83 0
35 41 47 59 78 0
35 41 47 66 78 0
35 41 47 78 0
35 41 54 66 78 0
35 41 66 78 0
35 41 78 0
35 48 0
35 48 84 0
35 53 84 0
35 54 66 0
35 59 0
35 59 66 0
35 66 0
35 66 84 0
35 84 0
36 42 48 60 79 0
36 42 48 67 79 0
36 42 48 79 0
36 42 55 67 79 0
36 42 67 79 0
36 42 79 0
36 49 0
36 49 85 0
36 54 85 0
36 55 67 0
36 60 0
36 60 67 0
36 67 0
36 67 85 0
36 85 0
37 43 49 61 80 0
37 43 49 68 80 0
37 43 49 80 0
37 43 56 68 80 0
37 43 68 80 0
37 43 80 0
37 50 0
37 50 86 0
37 55 86 0
37 56 68 0
37 61 0
37 61 68 0
37 68 0
37 68 86 0
37 86 0
38 44 0
38 44 51 0
38 44 56 0
38 44 69 0
38 51 0
38 57 69 0
38 62 0
38 62 69 0
38 69 0
39 45 0
39 45 52 0
39 45 57 0
39 45 70 0
39 52 0
39 58 70 0
39 63 0
39 63 70 0
39 70 0
40 46 0
40 46 53 0
40 46 58 0
40 46 71 0
40 53 0
40 59 71 0
40 64 0
40 64 71 0
40 71 0
41 47 0
41 47 54 0
41 47 59 0
41 47 72 0
41 54 0
41 60 72 0
41 65 0
41 65 72 0
41 72 0
42 48 0
42 48 55 0
42 48 60 0
42 48 73 0
42 55 0
42 61 73 0
42 66 0
42 66 73 0
42 73 0
43 49 0
43 49 56 0
43 49 61 0
43 49 74 0
43 56 0
43 62 74 0
43 67 0
43 67 74 0
43 74 0
44 0
44 51 0
44 51 63 75 0
44 56 0
44 56 63 75 0
44 56 68 75 0
44 56 68 80 0
44 60 0
44 71 0
44 75 0
44 80 0
45 0
45 52 0
45 52 64 76 0
45 57 0
45 57 64 76 0
45 57 69 76 0
45 57 69 81 0
45 61 0
45 72 0
45 76 0
45 81 0
46 0
46 53 0
46 53 65 77 0
46 58 0
46 58 65 77 0
46 58 70 77 0
46 58 70 82 0
46 62 0
46 73 0
46 77 0
46 82 0
47 0
47 54 0
47 54 66 78 0
47 59 0
47 59 66 78 0
47 59 71 78 0
47 59 71 83 0
47 63 0
47 74 0
47 78 0
47 83 0
48 0
48 55 0
48 55 67 79 0
48 60 0
48 60 67 79 0
48 60 72 79 0
48 60 72 84 0
48 64 0
48 75 0
48 79 0
48 84 0
49 0
49 56 0
49 56 68 80 0
49 61 0
49 61 68 80 0
49 61 73 80 0
49 61 73 85 0
49 65 0
49 76 0
49 80 0
49 85 0
50 0
50 57 0
50 57 69 81 0
50 62 0
50 62 69 81 0
50 62 74 81 0
50 62 74 86 0
50 66 0
50 77 0
50 81 0
50 86 0
51 0
51 58 0
51 58 70 82 0
51 63 0
51 63 70 82 0
51 63 75 82 0
51 67 0
51 78 0
51 82 0
52 0
52 59 0
52 59 71 83 0
52 64 0
52 64 71 83 0
52 64 76 83 0
52 68 0
52 79 0
52 83 0
53 0
53 60 0
53 60 72 84 0
53 65 0
53 65 72 84 0
53 65 77 84 0
53 69 0
53 80 0
53 84 0
54 0
54 61 0
54 61 73 85 0
54 66 0
54 66 73 85 0
54 66 78 85 0
54 70 0
54 81 0
54 85 0
55 0
55 62 0
55 62 74 86 0
55 67 0
55 67 74 86 0
55 67 79 86 0
55 71 0
55 82 0
55 86 0
56 0
56 63 0
56 68 0
56 72 0
56 83 0
57 0
57 64 0
57 69 0
57 73 0
57 84 0
58 0
58 65 0
58 70 0
58 74 0
58 85 0
59 0
59 66 0
59 71 0
59 75 0
59 86 0
60 0
60 67 0
60 72 0
60 76 0
61 0
61 68 0
61 73 0
61 77 0
62 0
62 69 0
62 74 0
62 78 0
63 0
63 70 0
63 75 0
63 79 0
64 0
64 71 0
64 76 0
64 80 0
65 0
65 72 0
65 77 0
65 81 0
66 0
66 73 0
66 78 0
66 82 0
67 0
67 74 0
67 79 0
67 83 0
68 0
68 75 0
68 80 0
68 84 0
69 0
69 76 0
69 81 0
69 85 0
70 0
70 77 0
70 82 0
70 86 0
71 0
71 78 0
71 83 0
72 0
72 79 0
72 84 0
73 0
73 80 0
73 85 0
74 0
74 81 0
74 86 0
75 0
75 82 0
76 0
76 83 0
77 0
77 84 0
78 0
78 85 0
79 0
79 86 0
80 0
81 0
82 0
83 0
84 0
85 0
86 0
